(set-logic QF_NRA)
(set-info :source |Benchmarks generated from hycomp (https://es-static.fbk.eu/tools/hycomp/). BMC instances of non-linear hybrid automata taken from: Alessandro Cimatti, Sergio Mover, Stefano Tonetta, A quantifier-free SMT encoding of non-linear hybrid automata, FMCAD 2012 and Alessandro Cimatti, Sergio Mover, Stefano Tonetta, Quantier-free encoding of invariants for Hybrid Systems, Formal Methods in System Design. This instance solves a BMC problem of depth 1 and uses the encoding obtained with quantifier elimination using qepcad encoding. Contacts: Sergio Mover (mover@fbk.eu), Stefano Tonetta (tonettas@fbk.eu), Alessandro Cimatti (cimatti@fbk.eu).|)
(set-info :smt-lib-version 2.0)
(set-info :category "industrial")
(set-info :status unsat)
;; MathSAT API call trace
;; generated on Mon Mar 19 10:50:47 2012
(declare-fun b.x__AT1 () Real)
(declare-fun b.counter.2__AT0 () Bool)
(declare-fun b.speed_y__AT1 () Real)
(declare-fun b.event_is_timed__AT0 () Bool)
(declare-fun b.x__AT0 () Real)
(declare-fun b.time__AT1 () Real)
(declare-fun b.bool_atom__AT1 () Bool)
(declare-fun b.g__AT0 () Real)
(declare-fun b.time__AT0 () Real)
(declare-fun b.delta__AT0 () Real)
(declare-fun b.counter.3__AT0 () Bool)
(declare-fun b.speed_y__AT0 () Real)
(declare-fun b.y__AT1 () Real)
(declare-fun b.counter.0__AT1 () Bool)
(declare-fun b.counter.1__AT1 () Bool)
(declare-fun b.counter.2__AT1 () Bool)
(declare-fun b.counter.3__AT1 () Bool)
(declare-fun b.delta__AT1 () Real)
(declare-fun b.event_is_timed__AT1 () Bool)
(declare-fun b.EVENT.0__AT1 () Bool)
(declare-fun b.EVENT.1__AT1 () Bool)
(declare-fun b.y__AT0 () Real)
(declare-fun b.counter.0__AT0 () Bool)
(declare-fun b.EVENT.1__AT0 () Bool)
(declare-fun b.counter.1__AT0 () Bool)
(declare-fun b.EVENT.0__AT0 () Bool)
(declare-fun b.bool_atom__AT0 () Bool)
(assert (let ((.def_261 (* 5.0 b.delta__AT1)))
(let ((.def_262 (* b.delta__AT1 .def_261)))
(let ((.def_263 (* (- 1.0) .def_262)))
(let ((.def_259 (* b.speed_y__AT1 b.delta__AT1)))
(let ((.def_266 (+ .def_259 .def_263)))
(let ((.def_256 (* b.x__AT1 b.x__AT1)))
(let ((.def_267 (+ .def_256 .def_266)))
(let ((.def_268 (+ b.y__AT1 .def_267)))
(let ((.def_269 (<= 0.0 .def_268)))
(let ((.def_257 (+ b.y__AT1 .def_256)))
(let ((.def_258 (<= 0.0 .def_257)))
(let ((.def_270 (and .def_258 .def_269)))
(let ((.def_254 (<= 0.0 b.delta__AT1)))
(let ((.def_255 (not .def_254)))
(let ((.def_271 (or .def_255 .def_270)))
(let ((.def_237 (not b.EVENT.0__AT1)))
(let ((.def_235 (not b.EVENT.1__AT1)))
(let ((.def_251 (and .def_235 .def_237)))
(let ((.def_252 (not .def_251)))
(let ((.def_272 (or .def_252 .def_271)))
(let ((.def_32 (not b.counter.0__AT0)))
(let ((.def_30 (not b.counter.1__AT0)))
(let ((.def_33 (and .def_30 .def_32)))
(let ((.def_247 (or .def_33 b.counter.3__AT0)))
(let ((.def_38 (not b.counter.3__AT0)))
(let ((.def_35 (not b.counter.2__AT0)))
(let ((.def_36 (and .def_33 .def_35)))
(let ((.def_246 (or .def_36 .def_38)))
(let ((.def_248 (and .def_246 .def_247)))
(let ((.def_240 (* (- 1.0) b.x__AT1)))
(let ((.def_241 (* b.x__AT1 .def_240)))
(let ((.def_242 (<= .def_241 b.y__AT1)))
(let ((.def_62 (<= b.g__AT0 10.0 )))
(let ((.def_61 (<= 8.0 b.g__AT0)))
(let ((.def_63 (and .def_61 .def_62)))
(let ((.def_243 (and .def_63 .def_242)))
(let ((.def_238 (or .def_235 .def_237)))
(let ((.def_6 (not b.counter.0__AT1)))
(let ((.def_4 (not b.counter.1__AT1)))
(let ((.def_228 (or .def_4 .def_6)))
(let ((.def_232 (or b.counter.3__AT1 .def_228)))
(let ((.def_229 (or b.counter.2__AT1 .def_228)))
(let ((.def_9 (not b.counter.2__AT1)))
(let ((.def_227 (or .def_6 .def_9)))
(let ((.def_230 (and .def_227 .def_229)))
(let ((.def_12 (not b.counter.3__AT1)))
(let ((.def_231 (or .def_12 .def_230)))
(let ((.def_233 (and .def_231 .def_232)))
(let ((.def_239 (and .def_233 .def_238)))
(let ((.def_244 (and .def_239 .def_243)))
(let ((.def_71 (<= 0.0 b.delta__AT0)))
(let ((.def_51 (not b.EVENT.0__AT0)))
(let ((.def_49 (not b.EVENT.1__AT0)))
(let ((.def_68 (and .def_49 .def_51)))
(let ((.def_69 (not .def_68)))
(let ((.def_223 (or .def_69 .def_71)))
(let ((.def_224 (or b.EVENT.1__AT0 .def_223)))
(let ((.def_129 (= b.bool_atom__AT0 b.bool_atom__AT1)))
(let ((.def_124 (= b.counter.0__AT1 b.counter.0__AT0)))
(let ((.def_122 (= b.counter.1__AT1 b.counter.1__AT0)))
(let ((.def_120 (= b.counter.2__AT1 b.counter.2__AT0)))
(let ((.def_119 (= b.counter.3__AT1 b.counter.3__AT0)))
(let ((.def_121 (and .def_119 .def_120)))
(let ((.def_123 (and .def_121 .def_122)))
(let ((.def_125 (and .def_123 .def_124)))
(let ((.def_219 (and .def_125 .def_129)))
(let ((.def_220 (or .def_69 .def_219)))
(let ((.def_221 (or b.EVENT.1__AT0 .def_220)))
(let ((.def_193 (* (- 1.0) b.g__AT0)))
(let ((.def_208 (* b.delta__AT0 .def_193)))
(let ((.def_209 (* (- 1.0) b.speed_y__AT1)))
(let ((.def_212 (+ .def_209 .def_208)))
(let ((.def_213 (+ b.speed_y__AT0 .def_212)))
(let ((.def_214 (= .def_213 0.0 )))
(let ((.def_197 (* b.delta__AT0 b.delta__AT0)))
(let ((.def_196 (* (/ 1 2) .def_193)))
(let ((.def_198 (* .def_196 .def_197)))
(let ((.def_200 (* (- 1.0) b.y__AT1)))
(let ((.def_203 (+ .def_200 .def_198)))
(let ((.def_77 (* b.delta__AT0 b.speed_y__AT0)))
(let ((.def_204 (+ .def_77 .def_203)))
(let ((.def_205 (+ b.y__AT0 .def_204)))
(let ((.def_206 (= .def_205 0.0 )))
(let ((.def_111 (= b.x__AT0 b.x__AT1)))
(let ((.def_207 (and .def_111 .def_206)))
(let ((.def_215 (and .def_207 .def_214)))
(let ((.def_216 (or .def_69 .def_215)))
(let ((.def_114 (= b.y__AT0 b.y__AT1)))
(let ((.def_188 (and .def_111 .def_114)))
(let ((.def_117 (= b.speed_y__AT0 b.speed_y__AT1)))
(let ((.def_189 (and .def_117 .def_188)))
(let ((.def_185 (= b.delta__AT0 0.0 )))
(let ((.def_186 (and .def_68 .def_185)))
(let ((.def_187 (not .def_186)))
(let ((.def_190 (or .def_187 .def_189)))
(let ((.def_191 (or b.EVENT.1__AT0 .def_190)))
(let ((.def_178 (and .def_117 .def_125)))
(let ((.def_179 (or b.bool_atom__AT0 .def_178)))
(let ((.def_154 (or .def_6 b.counter.0__AT0)))
(let ((.def_153 (or b.counter.0__AT1 .def_32)))
(let ((.def_155 (and .def_153 .def_154)))
(let ((.def_156 (and .def_4 .def_155)))
(let ((.def_157 (or b.counter.1__AT0 .def_156)))
(let ((.def_152 (or b.counter.1__AT1 .def_30)))
(let ((.def_158 (and .def_152 .def_157)))
(let ((.def_169 (and .def_9 .def_158)))
(let ((.def_170 (or b.counter.2__AT0 .def_169)))
(let ((.def_164 (and .def_4 .def_32)))
(let ((.def_165 (or b.counter.1__AT0 .def_164)))
(let ((.def_166 (and .def_152 .def_165)))
(let ((.def_167 (and b.counter.2__AT1 .def_166)))
(let ((.def_168 (or .def_35 .def_167)))
(let ((.def_171 (and .def_168 .def_170)))
(let ((.def_172 (and b.counter.3__AT1 .def_171)))
(let ((.def_173 (or b.counter.3__AT0 .def_172)))
(let ((.def_159 (and b.counter.2__AT1 .def_158)))
(let ((.def_160 (or b.counter.2__AT0 .def_159)))
(let ((.def_148 (or b.counter.1__AT1 b.counter.1__AT0)))
(let ((.def_146 (and .def_4 b.counter.0__AT1)))
(let ((.def_147 (or .def_30 .def_146)))
(let ((.def_149 (and .def_147 .def_148)))
(let ((.def_150 (and .def_9 .def_149)))
(let ((.def_151 (or .def_35 .def_150)))
(let ((.def_161 (and .def_151 .def_160)))
(let ((.def_162 (and .def_12 .def_161)))
(let ((.def_163 (or .def_38 .def_162)))
(let ((.def_174 (and .def_163 .def_173)))
(let ((.def_143 (* b.speed_y__AT0 b.speed_y__AT0)))
(let ((.def_142 (* b.speed_y__AT1 b.speed_y__AT1)))
(let ((.def_144 (= .def_142 .def_143)))
(let ((.def_140 (+ b.speed_y__AT0 b.speed_y__AT1)))
(let ((.def_141 (= .def_140 0.0 )))
(let ((.def_145 (and .def_141 .def_144)))
(let ((.def_175 (and .def_145 .def_174)))
(let ((.def_139 (not b.bool_atom__AT0)))
(let ((.def_176 (or .def_139 .def_175)))
(let ((.def_135 (<= 0.0 b.speed_y__AT0)))
(let ((.def_136 (not .def_135)))
(let ((.def_56 (* (- 1.0) b.x__AT0)))
(let ((.def_57 (* b.x__AT0 .def_56)))
(let ((.def_134 (= b.y__AT0 .def_57)))
(let ((.def_137 (and .def_134 .def_136)))
(let ((.def_138 (= b.bool_atom__AT0 .def_137)))
(let ((.def_177 (and .def_138 .def_176)))
(let ((.def_180 (and .def_177 .def_179)))
(let ((.def_181 (and .def_111 .def_180)))
(let ((.def_182 (and .def_114 .def_181)))
(let ((.def_183 (or .def_68 .def_182)))
(let ((.def_184 (or b.EVENT.1__AT0 .def_183)))
(let ((.def_192 (and .def_184 .def_191)))
(let ((.def_217 (and .def_192 .def_216)))
(let ((.def_98 (= b.time__AT0 b.time__AT1)))
(let ((.def_112 (and .def_98 .def_111)))
(let ((.def_115 (and .def_112 .def_114)))
(let ((.def_118 (and .def_115 .def_117)))
(let ((.def_126 (and .def_118 .def_125)))
(let ((.def_130 (and .def_126 .def_129)))
(let ((.def_131 (or .def_49 .def_130)))
(let ((.def_101 (* (- 1.0) b.time__AT1)))
(let ((.def_104 (+ b.delta__AT0 .def_101)))
(let ((.def_105 (+ b.time__AT0 .def_104)))
(let ((.def_106 (= .def_105 0.0 )))
(let ((.def_107 (or .def_69 .def_106)))
(let ((.def_108 (or b.EVENT.1__AT0 .def_107)))
(let ((.def_99 (or .def_68 .def_98)))
(let ((.def_100 (or b.EVENT.1__AT0 .def_99)))
(let ((.def_109 (and .def_100 .def_108)))
(let ((.def_132 (and .def_109 .def_131)))
(let ((.def_95 (= .def_69 b.event_is_timed__AT1)))
(let ((.def_93 (= b.event_is_timed__AT0 .def_68)))
(let ((.def_96 (and .def_93 .def_95)))
(let ((.def_133 (and .def_96 .def_132)))
(let ((.def_218 (and .def_133 .def_217)))
(let ((.def_222 (and .def_218 .def_221)))
(let ((.def_225 (and .def_222 .def_224)))
(let ((.def_226 (and .def_49 .def_225)))
(let ((.def_245 (and .def_226 .def_244)))
(let ((.def_249 (and .def_245 .def_248)))
(let ((.def_80 (* 5.0 b.delta__AT0)))
(let ((.def_81 (* b.delta__AT0 .def_80)))
(let ((.def_82 (* (- 1.0) .def_81)))
(let ((.def_85 (+ .def_77 .def_82)))
(let ((.def_73 (* b.x__AT0 b.x__AT0)))
(let ((.def_86 (+ .def_73 .def_85)))
(let ((.def_87 (+ b.y__AT0 .def_86)))
(let ((.def_88 (<= 0.0 .def_87)))
(let ((.def_74 (+ b.y__AT0 .def_73)))
(let ((.def_75 (<= 0.0 .def_74)))
(let ((.def_89 (and .def_75 .def_88)))
(let ((.def_72 (not .def_71)))
(let ((.def_90 (or .def_72 .def_89)))
(let ((.def_91 (or .def_69 .def_90)))
(let ((.def_58 (<= .def_57 b.y__AT0)))
(let ((.def_64 (and .def_58 .def_63)))
(let ((.def_52 (or .def_49 .def_51)))
(let ((.def_42 (or .def_30 .def_32)))
(let ((.def_46 (or b.counter.3__AT0 .def_42)))
(let ((.def_43 (or b.counter.2__AT0 .def_42)))
(let ((.def_41 (or .def_32 .def_35)))
(let ((.def_44 (and .def_41 .def_43)))
(let ((.def_45 (or .def_38 .def_44)))
(let ((.def_47 (and .def_45 .def_46)))
(let ((.def_53 (and .def_47 .def_52)))
(let ((.def_65 (and .def_53 .def_64)))
(let ((.def_39 (and .def_36 .def_38)))
(let ((.def_27 (= b.y__AT0 10.0 )))
(let ((.def_23 (= b.x__AT0 0.0 )))
(let ((.def_19 (= b.time__AT0 0.0 )))
(let ((.def_21 (and .def_19 b.event_is_timed__AT0)))
(let ((.def_24 (and .def_21 .def_23)))
(let ((.def_28 (and .def_24 .def_27)))
(let ((.def_40 (and .def_28 .def_39)))
(let ((.def_66 (and .def_40 .def_65)))
(let ((.def_7 (and .def_4 .def_6)))
(let ((.def_14 (or .def_7 b.counter.3__AT1)))
(let ((.def_10 (and .def_7 .def_9)))
(let ((.def_13 (or .def_10 .def_12)))
(let ((.def_15 (and .def_13 .def_14)))
(let ((.def_16 (not .def_15)))
(let ((.def_67 (and .def_16 .def_66)))
(let ((.def_92 (and .def_67 .def_91)))
(let ((.def_250 (and .def_92 .def_249)))
(let ((.def_273 (and .def_250 .def_272)))
.def_273))))))))))))))))))))))))))))))))))))))))))))))))))))))))))))))))))))))))))))))))))))))))))))))))))))))))))))))))))))))))))))))))))))))))))))))))))))))))))))))))))))))))))))))))))))))))))))))))))))))))))))))))))))))))))))))))
(check-sat)
(exit)
